NAME          ClpDefau
ROWS
 N  OBJROW
 L  R_136_0
 L  R_136_1
 L  R_136_2
 L  R_136_3
 L  R_136_4
 L  R_136_5
 L  R_136_6
 L  R_136_7
 L  R_136_8
 L  R_136_9
 L  R_136_10
 L  R_136_11
 L  R_136_12
 L  R_136_13
 L  R_136_14
 L  R_136_15
 L  R_136_16
 L  R_136_17
 L  R_136_18
 L  R_136_19
 L  R_136_20
 L  R_136_21
 L  R_136_22
 L  R_136_23
 L  R_136_24
 L  R_136_25
 L  R_136_26
 L  R_136_27
 L  R_136_28
 L  R_136_29
 L  R_136_30
 L  R_136_31
COLUMNS
    x_0       OBJROW     -1.           R_136_4   4.          
    x_0       R_136_10  23.            R_136_12  42.         
    x_0       R_136_13  66.            R_136_17  58.         
    x_0       R_136_26  97.         
    x_1       OBJROW     -2.        
    x_2       OBJROW     -2.           R_136_0   25.         
    x_2       R_136_2   74.            R_136_7   67.         
    x_2       R_136_8   35.            R_136_14  47.         
    x_2       R_136_17  15.            R_136_19  94.         
    x_2       R_136_22  21.            R_136_25  76.         
    x_2       R_136_26  32.            R_136_27  5.          
    x_2       R_136_28  79.         
    x_3       OBJROW     -6.           R_136_4   34.         
    x_3       R_136_12  58.            R_136_28  22.         
    x_3       R_136_29  82.         
    x_4       OBJROW     -3.           R_136_1   32.         
    x_4       R_136_12  5.             R_136_14  66.         
    x_4       R_136_17  24.            R_136_19  4.          
    x_4       R_136_31  54.         
    x_5       OBJROW     -5.           R_136_5   16.         
    x_5       R_136_10  88.            R_136_12  26.         
    x_5       R_136_15  58.            R_136_16  82.         
    x_5       R_136_20  37.            R_136_21  40.         
    x_5       R_136_23  97.            R_136_25  48.         
    x_5       R_136_30  16.            R_136_31  79.         
    x_6       OBJROW     -5.           R_136_4   85.         
    x_6       R_136_6   91.            R_136_27  46.         
    x_6       R_136_28  70.            R_136_29  54.         
    x_7       OBJROW     -10.          R_136_3   38.         
    x_7       R_136_8   37.            R_136_9   70.         
    x_7       R_136_16  21.            R_136_23  57.         
    x_7       R_136_29  36.         
    x_8       OBJROW     -4.           R_136_15  60.         
    x_8       R_136_19  13.            R_136_20  28.         
    x_8       R_136_25  72.            R_136_27  96.         
    x_9       OBJROW     -10.          R_136_0   87.         
    x_9       R_136_7   1.             R_136_11  76.         
    x_9       R_136_17  11.            R_136_27  64.         
    x_9       R_136_31  72.         
    x_10      OBJROW     -1.           R_136_1   5.          
    x_10      R_136_11  41.            R_136_18  82.         
    x_10      R_136_22  65.            R_136_30  49.         
    x_11      OBJROW     -10.          R_136_7   92.         
    x_11      R_136_12  31.            R_136_16  18.         
    x_12      OBJROW     -3.           R_136_8   46.         
    x_12      R_136_10  24.            R_136_14  22.         
    x_12      R_136_26  41.         
    x_13      OBJROW     -7.           R_136_0   47.         
    x_13      R_136_9   19.            R_136_10  9.          
    x_13      R_136_13  67.            R_136_15  83.         
    x_14      OBJROW     -7.           R_136_2   14.         
    x_14      R_136_5   88.            R_136_7   51.         
    x_14      R_136_10  14.            R_136_13  55.         
    x_14      R_136_15  84.            R_136_19  18.         
    x_14      R_136_21  65.            R_136_23  70.         
    x_14      R_136_29  63.            R_136_30  70.         
    x_14      R_136_31  14.         
    x_15      OBJROW     -9.           R_136_13  27.         
    x_15      R_136_14  26.            R_136_30  71.         
RHS
    RHS       R_136_0   94.            R_136_1   89.         
    RHS       R_136_2   140.           R_136_3   188.        
    RHS       R_136_4   50.            R_136_5   205.        
    RHS       R_136_6   75.            R_136_7   200.        
    RHS       R_136_8   46.            R_136_9   107.        
    RHS       R_136_10  161.           R_136_11  178.        
    RHS       R_136_12  52.            R_136_13  97.         
    RHS       R_136_14  76.            R_136_15  193.        
    RHS       R_136_16  120.           R_136_17  49.         
    RHS       R_136_18  90.            R_136_19  67.         
    RHS       R_136_20  75.            R_136_21  202.        
    RHS       R_136_22  179.           R_136_23  87.         
    RHS       R_136_24  63.            R_136_25  158.        
    RHS       R_136_26  201.           R_136_27  114.        
    RHS       R_136_28  93.            R_136_29  80.         
    RHS       R_136_30  123.           R_136_31  110.        
BOUNDS
 UI BOUND     x_0       10.         
 UI BOUND     x_1       10.         
 UI BOUND     x_2       10.         
 UI BOUND     x_3       10.         
 UI BOUND     x_4       10.         
 UI BOUND     x_5       10.         
 UI BOUND     x_6       10.         
 UI BOUND     x_7       10.         
 UI BOUND     x_8       10.         
 UI BOUND     x_9       10.         
 UI BOUND     x_10      10.         
 UI BOUND     x_11      10.         
 UI BOUND     x_12      10.         
 UI BOUND     x_13      10.         
 UI BOUND     x_14      10.         
 UI BOUND     x_15      10.         
ENDATA
